
Gurobi 11.0.0 (mac64[arm]) logging started Fri Apr 19 16:16:08 2024

Set parameter LogFile to value "GurobiLogs/blogger_1.txt"
Set parameter TimeLimit to value 3600
Unknown variable 'd[0]' in MIP start 0 - ignored
Unknown variable 'a[V1_high,0]' in MIP start 0 - ignored
Unknown variable 'a[V1_low,0]' in MIP start 0 - ignored
Unknown variable 'a[V1_medium,0]' in MIP start 0 - ignored
Unknown variable 'a[V2_left,0]' in MIP start 0 - ignored
Unknown variable 'a[V2_middle,0]' in MIP start 0 - ignored
Unknown variable 'a[V2_right,0]' in MIP start 0 - ignored
Unknown variable 'a[V3_impression,0]' in MIP start 0 - ignored
Unknown variable 'a[V3_news,0]' in MIP start 0 - ignored
Unknown variable 'a[V3_political,0]' in MIP start 0 - ignored
Unknown variable 'a[V3_scientific,0]' in MIP start 0 - ignored
Unknown variable 'a[V3_tourism,0]' in MIP start 0 - ignored
Unknown variable 'a[V4_yes,0]' in MIP start 0 - ignored
Unknown variable 'a[V5_yes,0]' in MIP start 0 - ignored
Unknown variable 'z[86,1]' in MIP start 0 - ignored
Unknown variable 'z[86,2]' in MIP start 0 - ignored
Unknown variable 'z[53,1]' in MIP start 0 - ignored
Unknown variable 'z[53,2]' in MIP start 0 - ignored
Unknown variable 'z[77,1]' in MIP start 0 - ignored
Unknown variable 'z[77,2]' in MIP start 0 - ignored
Unknown variable 'z[15,1]' in MIP start 0 - ignored
Unknown variable 'z[15,2]' in MIP start 0 - ignored
Unknown variable 'z[83,1]' in MIP start 0 - ignored
Unknown variable 'z[83,2]' in MIP start 0 - ignored
Unknown variable 'z[41,1]' in MIP start 0 - ignored
Unknown variable 'z[41,2]' in MIP start 0 - ignored
Unknown variable 'z[45,1]' in MIP start 0 - ignored
Unknown variable 'z[45,2]' in MIP start 0 - ignored
Unknown variable 'z[91,1]' in MIP start 0 - ignored
Unknown variable 'z[91,2]' in MIP start 0 - ignored
Unknown variable 'z[26,1]' in MIP start 0 - ignored
Unknown variable 'z[26,2]' in MIP start 0 - ignored
Unknown variable 'z[98,1]' in MIP start 0 - ignored
Unknown variable 'z[98,2]' in MIP start 0 - ignored
Unknown variable 'z[43,1]' in MIP start 0 - ignored
Unknown variable 'z[43,2]' in MIP start 0 - ignored
Unknown variable 'z[55,1]' in MIP start 0 - ignored
Unknown variable 'z[55,2]' in MIP start 0 - ignored
Unknown variable 'z[24,1]' in MIP start 0 - ignored
Unknown variable 'z[24,2]' in MIP start 0 - ignored
Unknown variable 'z[4,1]' in MIP start 0 - ignored
Unknown variable 'z[4,2]' in MIP start 0 - ignored
Unknown variable 'z[58,1]' in MIP start 0 - ignored
Unknown variable 'z[58,2]' in MIP start 0 - ignored
Unknown variable 'z[49,1]' in MIP start 0 - ignored
Unknown variable 'z[49,2]' in MIP start 0 - ignored
Unknown variable 'z[21,1]' in MIP start 0 - ignored
Unknown variable 'z[21,2]' in MIP start 0 - ignored
Unknown variable 'z[87,1]' in MIP start 0 - ignored
Unknown variable 'z[87,2]' in MIP start 0 - ignored
Unknown variable 'z[3,1]' in MIP start 0 - ignored
Unknown variable 'z[3,2]' in MIP start 0 - ignored
Unknown variable 'z[74,1]' in MIP start 0 - ignored
Unknown variable 'z[74,2]' in MIP start 0 - ignored
Unknown variable 'z[30,1]' in MIP start 0 - ignored
Unknown variable 'z[30,2]' in MIP start 0 - ignored
Unknown variable 'z[66,1]' in MIP start 0 - ignored
Unknown variable 'z[66,2]' in MIP start 0 - ignored
Unknown variable 'z[70,1]' in MIP start 0 - ignored
Unknown variable 'z[70,2]' in MIP start 0 - ignored
Unknown variable 'z[42,1]' in MIP start 0 - ignored
Unknown variable 'z[42,2]' in MIP start 0 - ignored
Unknown variable 'z[47,1]' in MIP start 0 - ignored
Unknown variable 'z[47,2]' in MIP start 0 - ignored
Unknown variable 'z[89,1]' in MIP start 0 - ignored
Unknown variable 'z[89,2]' in MIP start 0 - ignored
Unknown variable 'z[8,1]' in MIP start 0 - ignored
Unknown variable 'z[8,2]' in MIP start 0 - ignored
Unknown variable 'z[60,1]' in MIP start 0 - ignored
Unknown variable 'z[60,2]' in MIP start 0 - ignored
Unknown variable 'z[0,1]' in MIP start 0 - ignored
Unknown variable 'z[0,2]' in MIP start 0 - ignored
Unknown variable 'z[90,1]' in MIP start 0 - ignored
Unknown variable 'z[90,2]' in MIP start 0 - ignored
Unknown variable 'z[57,1]' in MIP start 0 - ignored
Unknown variable 'z[57,2]' in MIP start 0 - ignored
Unknown variable 'z[22,1]' in MIP start 0 - ignored
Unknown variable 'z[22,2]' in MIP start 0 - ignored
Unknown variable 'z[61,1]' in MIP start 0 - ignored
Unknown variable 'z[61,2]' in MIP start 0 - ignored
Unknown variable 'z[63,1]' in MIP start 0 - ignored
Unknown variable 'z[63,2]' in MIP start 0 - ignored
Unknown variable 'z[7,1]' in MIP start 0 - ignored
Unknown variable 'z[7,2]' in MIP start 0 - ignored
Unknown variable 'z[96,1]' in MIP start 0 - ignored
Unknown variable 'z[96,2]' in MIP start 0 - ignored
Unknown variable 'z[13,1]' in MIP start 0 - ignored
Unknown variable 'z[13,2]' in MIP start 0 - ignored
Unknown variable 'z[68,1]' in MIP start 0 - ignored
Unknown variable 'z[68,2]' in MIP start 0 - ignored
Unknown variable 'z[85,1]' in MIP start 0 - ignored
Unknown variable 'z[85,2]' in MIP start 0 - ignored
Unknown variable 'z[14,1]' in MIP start 0 - ignored
Unknown variable 'z[14,2]' in MIP start 0 - ignored
Unknown variable 'z[29,1]' in MIP start 0 - ignored
Unknown variable 'z[29,2]' in MIP start 0 - ignored
Unknown variable 'z[28,1]' in MIP start 0 - ignored
Unknown variable 'z[28,2]' in MIP start 0 - ignored
Unknown variable 'z[11,1]' in MIP start 0 - ignored
Unknown variable 'z[11,2]' in MIP start 0 - ignored
Unknown variable 'z[18,1]' in MIP start 0 - ignored
Unknown variable 'z[18,2]' in MIP start 0 - ignored
Unknown variable 'z[20,1]' in MIP start 0 - ignored
Unknown variable 'z[20,2]' in MIP start 0 - ignored
Unknown variable 'z[50,1]' in MIP start 0 - ignored
Unknown variable 'z[50,2]' in MIP start 0 - ignored
Unknown variable 'z[25,1]' in MIP start 0 - ignored
Unknown variable 'z[25,2]' in MIP start 0 - ignored
Unknown variable 'z[6,1]' in MIP start 0 - ignored
Unknown variable 'z[6,2]' in MIP start 0 - ignored
Unknown variable 'z[71,1]' in MIP start 0 - ignored
Unknown variable 'z[71,2]' in MIP start 0 - ignored
Unknown variable 'z[76,1]' in MIP start 0 - ignored
Unknown variable 'z[76,2]' in MIP start 0 - ignored
Unknown variable 'z[1,1]' in MIP start 0 - ignored
Unknown variable 'z[1,2]' in MIP start 0 - ignored
Unknown variable 'z[16,1]' in MIP start 0 - ignored
Unknown variable 'z[16,2]' in MIP start 0 - ignored
Unknown variable 'z[64,1]' in MIP start 0 - ignored
Unknown variable 'z[64,2]' in MIP start 0 - ignored
Unknown variable 'z[79,1]' in MIP start 0 - ignored
Unknown variable 'z[79,2]' in MIP start 0 - ignored
Unknown variable 'z[5,1]' in MIP start 0 - ignored
Unknown variable 'z[5,2]' in MIP start 0 - ignored
Unknown variable 'z[75,1]' in MIP start 0 - ignored
Unknown variable 'z[75,2]' in MIP start 0 - ignored
Unknown variable 'z[9,1]' in MIP start 0 - ignored
Unknown variable 'z[9,2]' in MIP start 0 - ignored
Unknown variable 'z[72,1]' in MIP start 0 - ignored
Unknown variable 'z[72,2]' in MIP start 0 - ignored
Unknown variable 'z[12,1]' in MIP start 0 - ignored
Unknown variable 'z[12,2]' in MIP start 0 - ignored
Unknown variable 'z[37,1]' in MIP start 0 - ignored
Unknown variable 'z[37,2]' in MIP start 0 - ignored
Unknown variable 'l[1]' in MIP start 0 - ignored
Unknown variable 'l[2]' in MIP start 0 - ignored
Unknown variable 'Beta[V1_high,1]' in MIP start 0 - ignored
Unknown variable 'Beta[V1_high,2]' in MIP start 0 - ignored
Unknown variable 'Beta[V1_low,1]' in MIP start 0 - ignored
Unknown variable 'Beta[V1_low,2]' in MIP start 0 - ignored
Unknown variable 'Beta[V1_medium,1]' in MIP start 0 - ignored
Unknown variable 'Beta[V1_medium,2]' in MIP start 0 - ignored
Unknown variable 'Beta[V2_left,1]' in MIP start 0 - ignored
Unknown variable 'Beta[V2_left,2]' in MIP start 0 - ignored
Unknown variable 'Beta[V2_middle,1]' in MIP start 0 - ignored
Unknown variable 'Beta[V2_middle,2]' in MIP start 0 - ignored
Unknown variable 'Beta[V2_right,1]' in MIP start 0 - ignored
Unknown variable 'Beta[V2_right,2]' in MIP start 0 - ignored
Unknown variable 'Beta[V3_impression,1]' in MIP start 0 - ignored
Unknown variable 'Beta[V3_impression,2]' in MIP start 0 - ignored
Unknown variable 'Beta[V3_news,1]' in MIP start 0 - ignored
Unknown variable 'Beta[V3_news,2]' in MIP start 0 - ignored
Unknown variable 'Beta[V3_political,1]' in MIP start 0 - ignored
Unknown variable 'Beta[V3_political,2]' in MIP start 0 - ignored
Unknown variable 'Beta[V3_scientific,1]' in MIP start 0 - ignored
Unknown variable 'Beta[V3_scientific,2]' in MIP start 0 - ignored
Unknown variable 'Beta[V3_tourism,1]' in MIP start 0 - ignored
Unknown variable 'Beta[V3_tourism,2]' in MIP start 0 - ignored
Unknown variable 'Beta[V4_yes,1]' in MIP start 0 - ignored
Unknown variable 'Beta[V4_yes,2]' in MIP start 0 - ignored
Unknown variable 'Beta[V5_yes,1]' in MIP start 0 - ignored
Unknown variable 'Beta[V5_yes,2]' in MIP start 0 - ignored
Unknown variable 'Beta_abs[V1_high,1]' in MIP start 0 - ignored
Unknown variable 'Beta_abs[V1_high,2]' in MIP start 0 - ignored
Unknown variable 'Beta_abs[V1_low,1]' in MIP start 0 - ignored
Unknown variable 'Beta_abs[V1_low,2]' in MIP start 0 - ignored
Unknown variable 'Beta_abs[V1_medium,1]' in MIP start 0 - ignored
Unknown variable 'Beta_abs[V1_medium,2]' in MIP start 0 - ignored
Unknown variable 'Beta_abs[V2_left,1]' in MIP start 0 - ignored
Unknown variable 'Beta_abs[V2_left,2]' in MIP start 0 - ignored
Unknown variable 'Beta_abs[V2_middle,1]' in MIP start 0 - ignored
Unknown variable 'Beta_abs[V2_middle,2]' in MIP start 0 - ignored
Unknown variable 'Beta_abs[V2_right,1]' in MIP start 0 - ignored
Unknown variable 'Beta_abs[V2_right,2]' in MIP start 0 - ignored
Unknown variable 'Beta_abs[V3_impression,1]' in MIP start 0 - ignored
Unknown variable 'Beta_abs[V3_impression,2]' in MIP start 0 - ignored
Unknown variable 'Beta_abs[V3_news,1]' in MIP start 0 - ignored
Unknown variable 'Beta_abs[V3_news,2]' in MIP start 0 - ignored
Unknown variable 'Beta_abs[V3_political,1]' in MIP start 0 - ignored
Unknown variable 'Beta_abs[V3_political,2]' in MIP start 0 - ignored
Unknown variable 'Beta_abs[V3_scientific,1]' in MIP start 0 - ignored
Unknown variable 'Beta_abs[V3_scientific,2]' in MIP start 0 - ignored
Unknown variable 'Beta_abs[V3_tourism,1]' in MIP start 0 - ignored
Unknown variable 'Beta_abs[V3_tourism,2]' in MIP start 0 - ignored
Unknown variable 'Beta_abs[V4_yes,1]' in MIP start 0 - ignored
Unknown variable 'Beta_abs[V4_yes,2]' in MIP start 0 - ignored
Unknown variable 'Beta_abs[V5_yes,1]' in MIP start 0 - ignored
Unknown variable 'Beta_abs[V5_yes,2]' in MIP start 0 - ignored
Read MIP start from file WarmStarts/blogger_1.mst
Gurobi Optimizer version 11.0.0 build v11.0.0rc2 (mac64[arm] - Darwin 23.4.0 23E224)

CPU model: Apple M3 Pro
Thread count: 11 physical cores, 11 logical processors, using up to 11 threads

Optimize a model with 130 rows, 67 columns and 383 nonzeros
Model fingerprint: 0x609b4698
Variable types: 0 continuous, 67 integer (63 binary)
Coefficient statistics:
  Matrix range     [1e+00, 6e+01]
  Objective range  [1e+00, 1e+00]
  Bounds range     [1e+00, 1e+00]
  RHS range        [1e+00, 6e+01]

No start values specified in MIP start

Found heuristic solution: objective 16.0000000
Presolve removed 130 rows and 67 columns
Presolve time: 0.00s
Presolve: All rows and columns removed

Explored 0 nodes (0 simplex iterations) in 0.00 seconds (0.00 work units)
Thread count was 1 (of 11 available processors)

Solution count 1: 16 

Optimal solution found (tolerance 1.00e-04)
Best objective 1.600000000000e+01, best bound 1.600000000000e+01, gap 0.0000%

Gurobi 11.0.0 (mac64[arm]) logging started Fri Apr 19 16:16:08 2024

Set parameter LogFile to value "GurobiLogs/blogger_1.txt"
Set parameter TimeLimit to value 3600
Read MIP start from file WarmStarts/blogger_1.mst
Gurobi Optimizer version 11.0.0 build v11.0.0rc2 (mac64[arm] - Darwin 23.4.0 23E224)

CPU model: Apple M3 Pro
Thread count: 11 physical cores, 11 logical processors, using up to 11 threads

Optimize a model with 130 rows, 67 columns and 383 nonzeros
Model fingerprint: 0x1f9facad
Variable types: 0 continuous, 67 integer (63 binary)
Coefficient statistics:
  Matrix range     [1e+00, 6e+01]
  Objective range  [1e+00, 1e+00]
  Bounds range     [1e+00, 1e+00]
  RHS range        [1e+00, 6e+01]

Loaded user MIP start with objective 16

Presolve removed 130 rows and 67 columns
Presolve time: 0.00s
Presolve: All rows and columns removed

Explored 0 nodes (0 simplex iterations) in 0.00 seconds (0.00 work units)
Thread count was 1 (of 11 available processors)

Solution count 1: 16 

Optimal solution found (tolerance 1.00e-04)
Best objective 1.600000000000e+01, best bound 1.600000000000e+01, gap 0.0000%

Gurobi 11.0.0 (mac64[arm]) logging started Fri Apr 19 16:16:08 2024

Set parameter LogFile to value "GurobiLogs/blogger_1.txt"
Set parameter TimeLimit to value 3600
Read MIP start from file WarmStarts/blogger_1.mst
Gurobi Optimizer version 11.0.0 build v11.0.0rc2 (mac64[arm] - Darwin 23.4.0 23E224)

CPU model: Apple M3 Pro
Thread count: 11 physical cores, 11 logical processors, using up to 11 threads

Optimize a model with 130 rows, 67 columns and 383 nonzeros
Model fingerprint: 0x1f9facad
Variable types: 0 continuous, 67 integer (63 binary)
Coefficient statistics:
  Matrix range     [1e+00, 6e+01]
  Objective range  [1e+00, 1e+00]
  Bounds range     [1e+00, 1e+00]
  RHS range        [1e+00, 6e+01]

Loaded user MIP start with objective 16

Presolve removed 130 rows and 67 columns
Presolve time: 0.00s
Presolve: All rows and columns removed

Explored 0 nodes (0 simplex iterations) in 0.00 seconds (0.00 work units)
Thread count was 1 (of 11 available processors)

Solution count 1: 16 

Optimal solution found (tolerance 1.00e-04)
Best objective 1.600000000000e+01, best bound 1.600000000000e+01, gap 0.0000%

Gurobi 11.0.0 (mac64[arm]) logging started Fri Apr 19 16:16:08 2024

Set parameter LogFile to value "GurobiLogs/blogger_1.txt"
Set parameter TimeLimit to value 3600
Read MIP start from file WarmStarts/blogger_1.mst
Gurobi Optimizer version 11.0.0 build v11.0.0rc2 (mac64[arm] - Darwin 23.4.0 23E224)

CPU model: Apple M3 Pro
Thread count: 11 physical cores, 11 logical processors, using up to 11 threads

Optimize a model with 130 rows, 67 columns and 383 nonzeros
Model fingerprint: 0x1f9facad
Variable types: 0 continuous, 67 integer (63 binary)
Coefficient statistics:
  Matrix range     [1e+00, 6e+01]
  Objective range  [1e+00, 1e+00]
  Bounds range     [1e+00, 1e+00]
  RHS range        [1e+00, 6e+01]

Loaded user MIP start with objective 16

Presolve removed 130 rows and 67 columns
Presolve time: 0.00s
Presolve: All rows and columns removed

Explored 0 nodes (0 simplex iterations) in 0.00 seconds (0.00 work units)
Thread count was 1 (of 11 available processors)

Solution count 1: 16 

Optimal solution found (tolerance 1.00e-04)
Best objective 1.600000000000e+01, best bound 1.600000000000e+01, gap 0.0000%

Gurobi 11.0.0 (mac64[arm]) logging started Fri Apr 19 16:16:08 2024

Set parameter LogFile to value "GurobiLogs/blogger_1.txt"
Set parameter TimeLimit to value 3600
Unknown variable 'z[86,0]' in MIP start 0 - ignored
Unknown variable 'z[53,0]' in MIP start 0 - ignored
Unknown variable 'z[77,0]' in MIP start 0 - ignored
Unknown variable 'z[15,0]' in MIP start 0 - ignored
Unknown variable 'z[83,0]' in MIP start 0 - ignored
Unknown variable 'z[41,0]' in MIP start 0 - ignored
Unknown variable 'z[45,0]' in MIP start 0 - ignored
Unknown variable 'z[91,0]' in MIP start 0 - ignored
Unknown variable 'z[26,0]' in MIP start 0 - ignored
Unknown variable 'z[98,0]' in MIP start 0 - ignored
Unknown variable 'z[43,0]' in MIP start 0 - ignored
Unknown variable 'z[55,0]' in MIP start 0 - ignored
Unknown variable 'z[24,0]' in MIP start 0 - ignored
Unknown variable 'z[4,0]' in MIP start 0 - ignored
Unknown variable 'z[58,0]' in MIP start 0 - ignored
Unknown variable 'z[49,0]' in MIP start 0 - ignored
Unknown variable 'z[21,0]' in MIP start 0 - ignored
Unknown variable 'z[87,0]' in MIP start 0 - ignored
Unknown variable 'z[3,0]' in MIP start 0 - ignored
Unknown variable 'z[74,0]' in MIP start 0 - ignored
Unknown variable 'z[30,0]' in MIP start 0 - ignored
Unknown variable 'z[66,0]' in MIP start 0 - ignored
Unknown variable 'z[70,0]' in MIP start 0 - ignored
Unknown variable 'z[42,0]' in MIP start 0 - ignored
Unknown variable 'z[47,0]' in MIP start 0 - ignored
Unknown variable 'z[89,0]' in MIP start 0 - ignored
Unknown variable 'z[8,0]' in MIP start 0 - ignored
Unknown variable 'z[60,0]' in MIP start 0 - ignored
Unknown variable 'z[0,0]' in MIP start 0 - ignored
Unknown variable 'z[90,0]' in MIP start 0 - ignored
Unknown variable 'z[57,0]' in MIP start 0 - ignored
Unknown variable 'z[22,0]' in MIP start 0 - ignored
Unknown variable 'z[61,0]' in MIP start 0 - ignored
Unknown variable 'z[63,0]' in MIP start 0 - ignored
Unknown variable 'z[7,0]' in MIP start 0 - ignored
Unknown variable 'z[96,0]' in MIP start 0 - ignored
Unknown variable 'z[13,0]' in MIP start 0 - ignored
Unknown variable 'z[68,0]' in MIP start 0 - ignored
Unknown variable 'z[85,0]' in MIP start 0 - ignored
Unknown variable 'z[14,0]' in MIP start 0 - ignored
Unknown variable 'z[29,0]' in MIP start 0 - ignored
Unknown variable 'z[28,0]' in MIP start 0 - ignored
Unknown variable 'z[11,0]' in MIP start 0 - ignored
Unknown variable 'z[18,0]' in MIP start 0 - ignored
Unknown variable 'z[20,0]' in MIP start 0 - ignored
Unknown variable 'z[50,0]' in MIP start 0 - ignored
Unknown variable 'z[25,0]' in MIP start 0 - ignored
Unknown variable 'z[6,0]' in MIP start 0 - ignored
Unknown variable 'z[71,0]' in MIP start 0 - ignored
Unknown variable 'z[76,0]' in MIP start 0 - ignored
Unknown variable 'z[1,0]' in MIP start 0 - ignored
Unknown variable 'z[16,0]' in MIP start 0 - ignored
Unknown variable 'z[64,0]' in MIP start 0 - ignored
Unknown variable 'z[79,0]' in MIP start 0 - ignored
Unknown variable 'z[5,0]' in MIP start 0 - ignored
Unknown variable 'z[75,0]' in MIP start 0 - ignored
Unknown variable 'z[9,0]' in MIP start 0 - ignored
Unknown variable 'z[72,0]' in MIP start 0 - ignored
Unknown variable 'z[12,0]' in MIP start 0 - ignored
Unknown variable 'z[37,0]' in MIP start 0 - ignored
Unknown variable 'l[0]' in MIP start 0 - ignored
Unknown variable 'c[1.0,0]' in MIP start 0 - ignored
Unknown variable 'c[-1.0,0]' in MIP start 0 - ignored
Unknown variable 'n_k[1.0,0]' in MIP start 0 - ignored
Unknown variable 'n_k[-1.0,0]' in MIP start 0 - ignored
Unknown variable 'N[0]' in MIP start 0 - ignored
Unknown variable 'L[0]' in MIP start 0 - ignored
Read MIP start from file WarmStarts/blogger_1.mst
Gurobi Optimizer version 11.0.0 build v11.0.0rc2 (mac64[arm] - Darwin 23.4.0 23E224)

CPU model: Apple M3 Pro
Thread count: 11 physical cores, 11 logical processors, using up to 11 threads

Optimize a model with 324 rows, 149 columns and 2589 nonzeros
Model fingerprint: 0x184b7c55
Variable types: 1 continuous, 148 integer (140 binary)
Coefficient statistics:
  Matrix range     [6e-02, 6e+01]
  Objective range  [1e+00, 1e+00]
  Bounds range     [1e+00, 1e+00]
  RHS range        [1e+00, 6e+01]

No start values specified in MIP start

Found heuristic solution: objective 16.0000000
Presolve removed 128 rows and 67 columns
Presolve time: 0.00s
Presolved: 196 rows, 82 columns, 1934 nonzeros
Variable types: 1 continuous, 81 integer (76 binary)

Root relaxation: objective 0.000000e+00, 36 iterations, 0.00 seconds (0.00 work units)

    Nodes    |    Current Node    |     Objective Bounds      |     Work
 Expl Unexpl |  Obj  Depth IntInf | Incumbent    BestBd   Gap | It/Node Time

     0     0    0.00000    0    2   16.00000    0.00000   100%     -    0s
     0     0    0.00000    0   28   16.00000    0.00000   100%     -    0s
     0     0    6.60291    0   28   16.00000    6.60291  58.7%     -    0s
H    0     0                      15.0000000    6.60291  56.0%     -    0s
     0     0   15.00000    0    6   15.00000   15.00000  0.00%     -    0s

Cutting planes:
  Learned: 3
  Gomory: 8
  Cover: 18
  Implied bound: 1
  Clique: 11
  MIR: 19
  StrongCG: 2
  GUB cover: 2
  Mod-K: 1
  RLT: 1
  Relax-and-lift: 1

Explored 1 nodes (240 simplex iterations) in 0.15 seconds (0.03 work units)
Thread count was 11 (of 11 available processors)

Solution count 2: 15 16 

Optimal solution found (tolerance 1.00e-04)
Best objective 1.500000000000e+01, best bound 1.500000000000e+01, gap 0.0000%

Gurobi 11.0.0 (mac64[arm]) logging started Fri Apr 19 16:16:08 2024

Set parameter LogFile to value "GurobiLogs/blogger_1.txt"
Set parameter TimeLimit to value 3600
Read MIP start from file WarmStarts/blogger_1.mst
Gurobi Optimizer version 11.0.0 build v11.0.0rc2 (mac64[arm] - Darwin 23.4.0 23E224)

CPU model: Apple M3 Pro
Thread count: 11 physical cores, 11 logical processors, using up to 11 threads

Optimize a model with 324 rows, 149 columns and 2589 nonzeros
Model fingerprint: 0xbfc92d8e
Variable types: 1 continuous, 148 integer (140 binary)
Coefficient statistics:
  Matrix range     [6e-02, 6e+01]
  Objective range  [1e+00, 1e+00]
  Bounds range     [1e+00, 1e+00]
  RHS range        [1e+00, 6e+01]

User MIP start produced solution with objective 15 (0.01s)
Loaded user MIP start with objective 15

Presolve removed 128 rows and 67 columns
Presolve time: 0.00s
Presolved: 196 rows, 82 columns, 1934 nonzeros
Variable types: 1 continuous, 81 integer (76 binary)

Root relaxation: objective 0.000000e+00, 36 iterations, 0.00 seconds (0.00 work units)

    Nodes    |    Current Node    |     Objective Bounds      |     Work
 Expl Unexpl |  Obj  Depth IntInf | Incumbent    BestBd   Gap | It/Node Time

     0     0    0.00000    0    2   15.00000    0.00000   100%     -    0s
     0     0    0.00000    0   27   15.00000    0.00000   100%     -    0s
     0     0    9.11822    0   27   15.00000    9.11822  39.2%     -    0s
     0     0   15.00000    0   10   15.00000   15.00000  0.00%     -    0s

Cutting planes:
  Learned: 2
  Gomory: 8
  Cover: 23
  Implied bound: 1
  Clique: 8
  MIR: 15
  StrongCG: 2
  GUB cover: 8
  Mod-K: 1
  RLT: 2
  Relax-and-lift: 1

Explored 1 nodes (338 simplex iterations) in 0.10 seconds (0.03 work units)
Thread count was 11 (of 11 available processors)

Solution count 1: 15 

Optimal solution found (tolerance 1.00e-04)
Best objective 1.500000000000e+01, best bound 1.500000000000e+01, gap 0.0000%

Gurobi 11.0.0 (mac64[arm]) logging started Fri Apr 19 16:16:08 2024

Set parameter LogFile to value "GurobiLogs/blogger_1.txt"
Set parameter TimeLimit to value 3600
Read MIP start from file WarmStarts/blogger_1.mst
Gurobi Optimizer version 11.0.0 build v11.0.0rc2 (mac64[arm] - Darwin 23.4.0 23E224)

CPU model: Apple M3 Pro
Thread count: 11 physical cores, 11 logical processors, using up to 11 threads

Optimize a model with 324 rows, 149 columns and 2589 nonzeros
Model fingerprint: 0xbfc92d8e
Variable types: 1 continuous, 148 integer (140 binary)
Coefficient statistics:
  Matrix range     [6e-02, 6e+01]
  Objective range  [1e+00, 1e+00]
  Bounds range     [1e+00, 1e+00]
  RHS range        [1e+00, 6e+01]

User MIP start produced solution with objective 15 (0.00s)
Loaded user MIP start with objective 15

Presolve removed 128 rows and 67 columns
Presolve time: 0.00s
Presolved: 196 rows, 82 columns, 1934 nonzeros
Variable types: 1 continuous, 81 integer (76 binary)

Root relaxation: objective 0.000000e+00, 36 iterations, 0.00 seconds (0.00 work units)

    Nodes    |    Current Node    |     Objective Bounds      |     Work
 Expl Unexpl |  Obj  Depth IntInf | Incumbent    BestBd   Gap | It/Node Time

     0     0    0.00000    0    2   15.00000    0.00000   100%     -    0s
     0     0    0.00000    0   27   15.00000    0.00000   100%     -    0s
     0     0    9.11822    0   27   15.00000    9.11822  39.2%     -    0s
     0     0   15.00000    0   10   15.00000   15.00000  0.00%     -    0s

Cutting planes:
  Learned: 2
  Gomory: 8
  Cover: 23
  Implied bound: 1
  Clique: 8
  MIR: 15
  StrongCG: 2
  GUB cover: 8
  Mod-K: 1
  RLT: 2
  Relax-and-lift: 1

Explored 1 nodes (338 simplex iterations) in 0.07 seconds (0.03 work units)
Thread count was 11 (of 11 available processors)

Solution count 1: 15 

Optimal solution found (tolerance 1.00e-04)
Best objective 1.500000000000e+01, best bound 1.500000000000e+01, gap 0.0000%

Gurobi 11.0.0 (mac64[arm]) logging started Fri Apr 19 16:16:08 2024

Set parameter LogFile to value "GurobiLogs/blogger_1.txt"
Set parameter TimeLimit to value 3600
Read MIP start from file WarmStarts/blogger_1.mst
Gurobi Optimizer version 11.0.0 build v11.0.0rc2 (mac64[arm] - Darwin 23.4.0 23E224)

CPU model: Apple M3 Pro
Thread count: 11 physical cores, 11 logical processors, using up to 11 threads

Optimize a model with 324 rows, 149 columns and 2589 nonzeros
Model fingerprint: 0xbfc92d8e
Variable types: 1 continuous, 148 integer (140 binary)
Coefficient statistics:
  Matrix range     [6e-02, 6e+01]
  Objective range  [1e+00, 1e+00]
  Bounds range     [1e+00, 1e+00]
  RHS range        [1e+00, 6e+01]

User MIP start produced solution with objective 15 (0.00s)
Loaded user MIP start with objective 15

Presolve removed 128 rows and 67 columns
Presolve time: 0.00s
Presolved: 196 rows, 82 columns, 1934 nonzeros
Variable types: 1 continuous, 81 integer (76 binary)

Root relaxation: objective 0.000000e+00, 36 iterations, 0.00 seconds (0.00 work units)

    Nodes    |    Current Node    |     Objective Bounds      |     Work
 Expl Unexpl |  Obj  Depth IntInf | Incumbent    BestBd   Gap | It/Node Time

     0     0    0.00000    0    2   15.00000    0.00000   100%     -    0s
     0     0    0.00000    0   27   15.00000    0.00000   100%     -    0s
     0     0    9.11822    0   27   15.00000    9.11822  39.2%     -    0s
     0     0   15.00000    0   10   15.00000   15.00000  0.00%     -    0s

Cutting planes:
  Learned: 2
  Gomory: 8
  Cover: 23
  Implied bound: 1
  Clique: 8
  MIR: 15
  StrongCG: 2
  GUB cover: 8
  Mod-K: 1
  RLT: 2
  Relax-and-lift: 1

Explored 1 nodes (338 simplex iterations) in 0.19 seconds (0.03 work units)
Thread count was 11 (of 11 available processors)

Solution count 1: 15 

Optimal solution found (tolerance 1.00e-04)
Best objective 1.500000000000e+01, best bound 1.500000000000e+01, gap 0.0000%
